45
1 0 5
2 1 1
3 0 1
3 1 4
3 2 2
4 1 5
5 0 1
5 1 2
5 3 5
5 4 2
6 0 5
6 1 2
6 4 2
7 2 5
7 3 2
7 4 5
7 6 5
8 0 3
8 1 2
8 2 3
8 3 4
9 0 2
9 2 4
9 4 4
9 5 1
10 4 1
10 5 1
10 6 3
10 7 5
10 8 3
10 9 2
11 0 1
11 4 1
12 1 3
12 3 3
12 4 2
12 5 4
12 7 1
12 8 4
12 9 1
12 11 3
13 3 4
13 6 1
13 7 3
13 8 3
13 9 4
14 3 1
14 4 5
14 5 4
14 10 5
14 12 2
14 13 2
15 2 2
15 4 1
15 6 2
15 7 2
15 8 1
15 9 5
15 10 4
15 12 4
15 13 4
16 0 1
16 1 2
16 2 4
16 4 3
16 7 2
16 10 5
16 13 5
16 14 2
17 10 1
17 11 2
17 12 2
17 15 2
18 0 1
18 2 3
18 5 2
19 0 5
19 2 1
19 3 4
19 4 3
19 5 5
19 9 2
19 11 5
19 13 3
19 14 4
19 18 1
20 0 4
20 1 5
20 3 5
20 4 4
20 8 4
20 10 5
20 11 1
20 12 5
20 14 4
20 17 5
20 18 4
21 1 2
21 4 2
21 7 4
21 8 5
21 9 4
21 10 5
21 11 1
21 13 3
21 17 4
21 19 4
21 20 4
22 0 4
22 1 3
22 3 1
22 4 4
22 12 1
22 14 4
22 17 5
22 19 1
22 20 4
23 0 1
23 1 5
23 7 1
23 8 1
23 10 2
23 11 2
23 13 4
23 14 4
23 15 4
23 18 2
23 20 1
24 1 2
24 4 5
24 7 5
24 9 1
24 11 2
24 13 3
24 15 5
24 16 4
24 18 4
24 22 1
25 1 3
25 3 2
25 6 3
25 15 1
25 17 2
25 21 2
25 23 2
25 24 5
26 2 3
26 5 3
26 8 2
26 9 4
26 10 5
26 14 4
26 16 4
26 18 3
26 19 2
26 20 3
26 21 4
26 22 5
26 23 2
26 25 2
27 0 2
27 1 4
27 3 4
27 6 1
27 7 3
27 9 4
27 11 5
27 12 5
27 13 1
27 14 4
27 18 3
27 20 3
27 22 3
27 25 1
28 0 5
28 2 2
28 4 3
28 7 2
28 9 2
28 10 1
28 11 5
28 16 2
28 18 5
28 19 4
28 23 4
28 24 4
28 27 5
29 3 3
29 4 2
29 7 1
29 8 2
29 9 1
29 13 1
29 16 4
29 17 2
29 18 5
29 23 1
30 1 4
30 2 4
30 5 2
30 8 2
30 9 2
30 10 5
30 14 2
30 18 2
30 23 2
30 24 3
30 25 1
30 26 5
30 27 2
30 28 1
31 0 4
31 1 5
31 5 5
31 7 2
31 9 4
31 12 5
31 13 5
31 14 2
31 15 2
31 16 4
31 17 3
31 20 1
31 21 4
31 22 1
31 23 4
31 24 2
31 25 2
32 1 5
32 2 5
32 4 3
32 5 3
32 6 2
32 9 4
32 14 2
32 15 4
32 18 4
32 21 5
32 25 3
32 27 1
32 28 3
32 29 1
32 30 2
32 31 1
33 2 4
33 3 5
33 5 2
33 7 3
33 10 5
33 11 5
33 15 3
33 18 1
33 19 5
33 20 1
33 21 3
33 25 2
33 26 3
33 28 5
33 30 5
33 31 2
34 1 3
34 4 5
34 5 1
34 7 2
34 11 2
34 13 2
34 15 5
34 16 4
34 17 2
34 18 2
34 19 5
34 20 3
34 21 3
34 22 1
34 23 5
34 28 4
34 29 4
34 32 5
34 33 5
35 2 1
35 3 4
35 5 2
35 12 3
35 13 2
35 16 1
35 17 5
35 20 5
35 22 2
35 24 5
35 27 4
35 28 2
35 34 5
36 2 3
36 3 2
36 4 4
36 5 1
36 10 1
36 12 5
36 13 3
36 15 3
36 19 4
36 21 1
36 22 5
36 23 4
36 24 5
36 25 2
36 26 4
36 27 4
36 30 1
36 31 4
36 32 3
36 33 1
36 34 4
37 0 5
37 3 2
37 4 5
37 6 2
37 7 3
37 8 4
37 9 4
37 12 5
37 18 1
37 19 3
37 20 1
37 22 3
37 24 3
37 25 4
37 28 1
37 31 1
37 33 4
37 34 3
37 35 4
38 4 2
38 8 5
38 12 5
38 14 1
38 15 5
38 18 4
38 19 5
38 20 3
38 21 2
38 22 2
38 24 3
38 27 5
38 29 3
38 30 1
38 31 2
38 33 2
38 35 2
38 37 4
39 0 4
39 1 2
39 2 4
39 4 2
39 7 2
39 10 2
39 11 1
39 16 2
39 17 1
39 21 1
39 22 1
39 26 4
39 30 4
39 31 4
39 32 5
39 33 5
39 35 5
39 37 5
40 1 5
40 2 5
40 11 4
40 15 5
40 16 4
40 17 4
40 20 1
40 24 1
40 26 2
40 27 3
40 28 3
40 29 5
40 30 5
40 31 4
40 32 2
40 33 4
41 0 4
41 3 2
41 4 5
41 5 4
41 9 4
41 10 1
41 12 5
41 19 5
41 20 5
41 21 1
41 23 5
41 24 2
41 26 4
41 28 2
41 29 1
41 30 1
41 32 3
41 34 1
41 35 1
41 36 5
41 37 1
41 38 2
41 39 5
41 40 1
42 4 1
42 5 1
42 9 2
42 14 1
42 16 2
42 18 4
42 23 1
42 24 4
42 29 1
42 32 5
42 35 3
42 39 5
42 40 4
43 0 1
43 2 1
43 3 1
43 5 5
43 9 1
43 13 2
43 14 3
43 15 2
43 16 3
43 21 5
43 23 4
43 24 1
43 25 3
43 26 2
43 29 2
43 30 3
43 41 5
44 0 2
44 5 3
44 8 1
44 9 2
44 10 4
44 12 4
44 13 5
44 17 3
44 18 3
44 19 2
44 20 1
44 23 1
44 24 2
44 25 2
44 26 2
44 30 4
44 32 4
44 34 4
44 35 1
44 36 4
44 37 1
44 38 2
44 43 5
